(declare-const x0 Real)
(assert (<= 0.0 x0))
(declare-const x1 Real)
(assert (<= 0.0 x1))
(declare-const x2 Real)
(assert (<= 0.0 x2))

(assert (<= (- 30.0) (+ (* (- 3.0) x0) (* (- 3.0) x2))))

(minimize
	(+ (sqrt (+ (^ (- x0) 2.0) (^ (- x1) 2.0) (^ (- x2) 2.0))) (sqrt (+ (^ (- 10.0 x0) 2.0) (^ (- x1) 2.0) (^ (- x2) 2.0))) (sqrt (+ (^ (- 10.0 x0) 2.0) (^ (- 10.0 x1) 2.0) (^ (- x2) 2.0))) (sqrt (+ (^ (- x0) 2.0) (^ (- 10.0 x1) 2.0) (^ (- x2) 2.0))) (sqrt (+ (^ (- x0) 2.0) (^ (- x1) 2.0) (^ (- 10.0 x2) 2.0))) (sqrt (+ (^ (- 10.0 x0) 2.0) (^ (- x1) 2.0) (^ (- 10.0 x2) 2.0))) (sqrt (+ (^ (- 10.0 x0) 2.0) (^ (- 10.0 x1) 2.0) (^ (- 10.0 x2) 2.0))) (sqrt (+ (^ (- x0) 2.0) (^ (- 10.0 x1) 2.0) (^ (- 10.0 x2) 2.0))))
)
(check-sat)
(get-objectives)
(exit)

